p cnf 195 859
1 0
-183 0
-92 0
-157 0
-105 0
177 180 181 173 171 178 179 172 176 182 174 175 170 0
184 186 191 194 193 195 190 188 185 192 189 187 0
160 161 159 164 162 169 165 168 166 167 163 158 0
149 150 151 148 153 146 154 145 155 144 152 147 0
131 135 137 136 141 138 133 134 139 132 140 0
121 122 123 126 120 127 118 119 125 124 0
108 109 111 106 107 112 110 113 0
93 95 97 94 98 99 96 0
83 84 85 79 82 80 81 0
68 69 70 71 66 67 0
55 56 57 53 54 0
40 41 43 42 0
27 28 29 0
-33 -46 0
-30 -43 0
-42 -29 0
-28 -41 0
-27 -40 0
-52 -130 0
-51 -129 0
-50 -128 0
-49 -127 0
-48 -126 0
-47 -125 0
-46 -124 0
-45 -123 0
-34 -47 0
-35 -48 0
-36 -49 0
-37 -50 0
-38 -51 0
-39 -52 0
-118 -14 0
-15 -119 0
-16 -120 0
-17 -121 0
-18 -122 0
-20 -124 0
-22 -126 0
-8 -164 0
-9 -165 0
-10 -166 0
-11 -167 0
-12 -168 0
-13 -169 0
-131 -118 0
-132 -119 0
-133 -120 0
-134 -121 0
-135 -122 0
-136 -123 0
-137 -124 0
-138 -125 0
-139 -126 0
-140 -127 0
-128 -141 0
-129 -142 0
-143 -130 0
-40 -118 0
-41 -119 0
-42 -120 0
-43 -121 0
-44 -122 0
-31 -44 0
-32 -45 0
-13 -117 0
-158 -145 0
-159 -146 0
-160 -147 0
-161 -148 0
-162 -149 0
-163 -150 0
-164 -151 0
-165 -152 0
-166 -153 0
-167 -154 0
-168 -155 0
-169 -156 0
-184 -28 0
-185 -29 0
-30 -186 0
-187 -31 0
-32 -188 0
-189 -33 0
-34 -190 0
-35 -191 0
-192 -36 0
-19 -123 0
-194 -38 0
-21 -125 0
-53 -144 0
-23 -127 0
-24 -128 0
-25 -129 0
-26 -130 0
-80 -158 0
-81 -159 0
-82 -160 0
-83 -161 0
-84 -162 0
-85 -163 0
-86 -164 0
-87 -165 0
-88 -166 0
-89 -167 0
-90 -168 0
-91 -169 0
-2 -106 0
-3 -107 0
-4 -108 0
-5 -109 0
-6 -110 0
-7 -111 0
-8 -112 0
-9 -113 0
-10 -114 0
-11 -115 0
-12 -116 0
-160 -186 0
-161 -187 0
-162 -188 0
-163 -189 0
-164 -190 0
-165 -191 0
-192 -166 0
-193 -167 0
-194 -168 0
-169 -195 0
-66 -144 0
-67 -145 0
-68 -146 0
-69 -147 0
-70 -148 0
-71 -149 0
-72 -150 0
-73 -151 0
-74 -152 0
-75 -153 0
-76 -154 0
-77 -155 0
-78 -156 0
-144 -79 0
-146 -81 0
-148 -83 0
-28 -80 0
-81 -29 0
-30 -82 0
-31 -83 0
-32 -84 0
-33 -85 0
-34 -86 0
-35 -87 0
-36 -88 0
-37 -89 0
-38 -90 0
-39 -91 0
-184 -119 0
-185 -120 0
-186 -121 0
-187 -122 0
-188 -123 0
-189 -124 0
-190 -125 0
-191 -126 0
-192 -127 0
-193 -128 0
-194 -129 0
-195 -130 0
-158 -184 0
-159 -185 0
-138 -177 0
-139 -178 0
-140 -179 0
-141 -180 0
-181 -142 0
-182 -143 0
-54 -184 0
-55 -185 0
-56 -186 0
-57 -187 0
-58 -188 0
-59 -189 0
-60 -190 0
-61 -191 0
-62 -192 0
-193 -63 0
-194 -64 0
-65 -195 0
-2 -158 0
-3 -159 0
-4 -160 0
-5 -161 0
-145 -80 0
-6 -162 0
-147 -82 0
-7 -163 0
-149 -84 0
-150 -85 0
-151 -86 0
-152 -87 0
-153 -88 0
-154 -89 0
-155 -90 0
-156 -91 0
-145 -106 0
-146 -107 0
-147 -108 0
-148 -109 0
-149 -110 0
-150 -111 0
-151 -112 0
-152 -113 0
-153 -114 0
-154 -115 0
-155 -116 0
-156 -117 0
-170 -131 0
-132 -171 0
-133 -172 0
-134 -173 0
-135 -174 0
-136 -175 0
-137 -176 0
-75 -192 0
-76 -193 0
-77 -194 0
-78 -195 0
-106 -15 0
-107 -16 0
-108 -17 0
-109 -18 0
-110 -19 0
-111 -20 0
-112 -21 0
-113 -22 0
-23 -114 0
-24 -115 0
-25 -116 0
-26 -117 0
-184 -132 0
-185 -133 0
-186 -134 0
-187 -135 0
-188 -136 0
-189 -137 0
-190 -138 0
-191 -139 0
-71 -97 0
-73 -99 0
-75 -101 0
-76 -102 0
-77 -103 0
-78 -104 0
-93 -171 0
-94 -172 0
-95 -173 0
-96 -174 0
-97 -175 0
-98 -176 0
-99 -177 0
-100 -178 0
-101 -179 0
-102 -180 0
-181 -103 0
-182 -104 0
-67 -184 0
-68 -185 0
-69 -186 0
-70 -187 0
-71 -188 0
-72 -189 0
-117 -104 0
-73 -190 0
-28 -54 0
-74 -191 0
-30 -56 0
-31 -57 0
-32 -58 0
-33 -59 0
-34 -60 0
-35 -61 0
-36 -62 0
-37 -63 0
-38 -64 0
-39 -65 0
-119 -158 0
-120 -159 0
-121 -160 0
-122 -161 0
-123 -162 0
-124 -163 0
-125 -164 0
-126 -165 0
-127 -166 0
-128 -167 0
-129 -168 0
-169 -130 0
-192 -140 0
-193 -141 0
-194 -142 0
-195 -143 0
-93 -15 0
-94 -16 0
-17 -95 0
-18 -96 0
-19 -97 0
-20 -98 0
-21 -99 0
-22 -100 0
-23 -101 0
-24 -102 0
-25 -103 0
-26 -104 0
-106 -93 0
-107 -94 0
-108 -95 0
-109 -96 0
-110 -97 0
-111 -98 0
-112 -99 0
-113 -100 0
-114 -101 0
-115 -102 0
-116 -103 0
-129 -103 0
-27 -53 0
-93 -28 0
-55 -29 0
-95 -30 0
-96 -31 0
-32 -97 0
-98 -33 0
-34 -99 0
-100 -35 0
-36 -101 0
-37 -102 0
-38 -103 0
-39 -104 0
-66 -131 0
-67 -132 0
-68 -133 0
-69 -134 0
-70 -135 0
-71 -136 0
-72 -137 0
-73 -138 0
-74 -139 0
-75 -140 0
-76 -141 0
-77 -142 0
-193 -37 0
-42 -159 0
-39 -195 0
-45 -162 0
-54 -145 0
-146 -55 0
-56 -147 0
-57 -148 0
-149 -58 0
-150 -59 0
-151 -60 0
-152 -61 0
-153 -62 0
-154 -63 0
-155 -64 0
-156 -65 0
-93 -119 0
-94 -120 0
-95 -121 0
-96 -122 0
-97 -123 0
-98 -124 0
-99 -125 0
-100 -126 0
-101 -127 0
-128 -102 0
-160 -108 0
-104 -130 0
-163 -111 0
-94 -29 0
-166 -114 0
-167 -115 0
-168 -116 0
-169 -117 0
-184 -171 0
-185 -172 0
-186 -173 0
-187 -174 0
-188 -175 0
-189 -176 0
-190 -177 0
-191 -178 0
-192 -179 0
-193 -180 0
-194 -181 0
-195 -182 0
-67 -93 0
-68 -94 0
-69 -95 0
-70 -96 0
-78 -143 0
-41 -158 0
-72 -98 0
-43 -160 0
-44 -161 0
-74 -100 0
-46 -163 0
-47 -164 0
-48 -165 0
-49 -166 0
-50 -167 0
-168 -51 0
-169 -52 0
-15 -158 0
-16 -159 0
-17 -160 0
-18 -161 0
-19 -162 0
-20 -163 0
-21 -164 0
-22 -165 0
-23 -166 0
-24 -167 0
-25 -168 0
-26 -169 0
-158 -106 0
-159 -107 0
-61 -165 0
-161 -109 0
-162 -110 0
-62 -166 0
-164 -112 0
-165 -113 0
-63 -167 0
-168 -64 0
-65 -169 0
-28 -158 0
-29 -159 0
-30 -160 0
-31 -161 0
-32 -162 0
-33 -163 0
-34 -164 0
-35 -165 0
-36 -166 0
-37 -167 0
-38 -168 0
-39 -169 0
-145 -184 0
-146 -185 0
-147 -186 0
-148 -187 0
-149 -188 0
-150 -189 0
-151 -190 0
-152 -191 0
-192 -153 0
-7 -98 0
-8 -99 0
-9 -100 0
-10 -101 0
-11 -102 0
-12 -103 0
-13 -104 0
-106 -119 0
-107 -120 0
-108 -121 0
-109 -122 0
-110 -123 0
-111 -124 0
-112 -125 0
-113 -126 0
-114 -127 0
-115 -128 0
-116 -129 0
-117 -130 0
-54 -158 0
-55 -159 0
-56 -160 0
-57 -161 0
-58 -162 0
-59 -163 0
-60 -164 0
-78 -39 0
-145 -15 0
-17 -147 0
-148 -18 0
-149 -19 0
-150 -20 0
-151 -21 0
-152 -22 0
-153 -23 0
-154 -24 0
-155 -25 0
-156 -26 0
-145 -93 0
-146 -94 0
-147 -95 0
-148 -96 0
-149 -97 0
-150 -98 0
-151 -99 0
-152 -100 0
-153 -101 0
-154 -102 0
-155 -103 0
-156 -104 0
-193 -154 0
-194 -155 0
-156 -195 0
-93 -41 0
-94 -42 0
-95 -43 0
-96 -44 0
-45 -97 0
-98 -46 0
-47 -99 0
-100 -48 0
-49 -101 0
-50 -102 0
-51 -103 0
-52 -104 0
-66 -27 0
-67 -28 0
-68 -29 0
-69 -30 0
-70 -31 0
-71 -32 0
-72 -33 0
-73 -34 0
-74 -35 0
-75 -36 0
-76 -37 0
-77 -38 0
-79 -118 0
-144 -14 0
-80 -119 0
-146 -16 0
-81 -120 0
-82 -121 0
-83 -122 0
-84 -123 0
-85 -124 0
-86 -125 0
-87 -126 0
-88 -127 0
-89 -128 0
-90 -129 0
-91 -130 0
-106 -171 0
-107 -172 0
-108 -173 0
-109 -174 0
-110 -175 0
-111 -176 0
-112 -177 0
-113 -178 0
-114 -179 0
-115 -180 0
-116 -181 0
-117 -182 0
-158 -93 0
14 15 0
-78 -130 0
-54 -93 0
-66 -118 0
-67 -119 0
-68 -120 0
-69 -121 0
-70 -122 0
-71 -123 0
-72 -124 0
-73 -125 0
-74 -126 0
-75 -127 0
-76 -128 0
-77 -129 0
-55 -94 0
-56 -95 0
-57 -96 0
-58 -97 0
-59 -98 0
-60 -99 0
-61 -100 0
-62 -101 0
-102 -63 0
-103 -64 0
-65 -104 0
-6 -188 0
-8 -190 0
-10 -192 0
-11 -193 0
-12 -194 0
-13 -195 0
-144 -40 0
-145 -41 0
-146 -42 0
-147 -43 0
-148 -44 0
-149 -45 0
-150 -46 0
-151 -47 0
-152 -48 0
-153 -49 0
-154 -50 0
-155 -51 0
-156 -52 0
-2 -93 0
-3 -94 0
-4 -95 0
-5 -96 0
-6 -97 0
-159 -94 0
-160 -95 0
-161 -96 0
-162 -97 0
-163 -98 0
-164 -99 0
-165 -100 0
-166 -101 0
-167 -102 0
-168 -103 0
-169 -104 0
-106 -28 0
-107 -29 0
-108 -30 0
-109 -31 0
-110 -32 0
-111 -33 0
-112 -34 0
-113 -35 0
-36 -114 0
-37 -115 0
-38 -116 0
-117 -39 0
-2 -184 0
-3 -185 0
-4 -186 0
-5 -187 0
-114 -140 0
-7 -189 0
-116 -142 0
-9 -191 0
-184 -15 0
-185 -16 0
-17 -186 0
-18 -187 0
-19 -188 0
-20 -189 0
-21 -190 0
-22 -191 0
-23 -192 0
-24 -193 0
-25 -194 0
-26 -195 0
-144 -118 0
-145 -119 0
-146 -120 0
-147 -121 0
-148 -122 0
-149 -123 0
-150 -124 0
-151 -125 0
-152 -126 0
-153 -127 0
-86 -138 0
-156 -130 0
-88 -140 0
-95 -134 0
-90 -142 0
-91 -143 0
-67 -158 0
-68 -159 0
-69 -160 0
-70 -161 0
-71 -162 0
-72 -163 0
-73 -164 0
-74 -165 0
-75 -166 0
-76 -167 0
-77 -168 0
-78 -169 0
-106 -132 0
-107 -133 0
-108 -134 0
-109 -135 0
-110 -136 0
-111 -137 0
-112 -138 0
-113 -139 0
-26 -143 0
-115 -141 0
-146 -172 0
-117 -143 0
-149 -175 0
-150 -176 0
-151 -177 0
-152 -178 0
-153 -179 0
-154 -180 0
-155 -181 0
-156 -182 0
-53 -131 0
-54 -132 0
-55 -133 0
-56 -134 0
-57 -135 0
-58 -136 0
-59 -137 0
-60 -138 0
-61 -139 0
-62 -140 0
-141 -63 0
-142 -64 0
-128 -154 0
-129 -155 0
-65 -143 0
-93 -132 0
-94 -133 0
-27 -79 0
-96 -135 0
-136 -97 0
-98 -137 0
-138 -99 0
-100 -139 0
-140 -101 0
-141 -102 0
-142 -103 0
-143 -104 0
-131 -14 0
-132 -15 0
-16 -133 0
-17 -134 0
-18 -135 0
-19 -136 0
-20 -137 0
-21 -138 0
-22 -139 0
-23 -140 0
-24 -141 0
-25 -142 0
-30 -17 0
-170 -144 0
-145 -171 0
-32 -19 0
-147 -173 0
-148 -174 0
-34 -21 0
-35 -22 0
-36 -23 0
-37 -24 0
-38 -25 0
-39 -26 0
-106 -184 0
-107 -185 0
-108 -186 0
-109 -187 0
-110 -188 0
-111 -189 0
-112 -190 0
-113 -191 0
-114 -192 0
-115 -193 0
-116 -194 0
-117 -195 0
-93 -80 0
-94 -81 0
-95 -82 0
-96 -83 0
-41 -184 0
-98 -85 0
-42 -185 0
-100 -87 0
-43 -186 0
-44 -187 0
-45 -188 0
-46 -189 0
-47 -190 0
-48 -191 0
-49 -192 0
-50 -193 0
-51 -194 0
-52 -195 0
-184 -80 0
-185 -81 0
-186 -82 0
-187 -83 0
-188 -84 0
-189 -85 0
-190 -86 0
-191 -87 0
-192 -88 0
-193 -89 0
-194 -90 0
-195 -91 0
-27 -14 0
-28 -15 0
-16 -29 0
-31 -18 0
-33 -20 0
-181 -168 0
-182 -169 0
-40 -131 0
-41 -132 0
-42 -133 0
-43 -134 0
-44 -135 0
-45 -136 0
-46 -137 0
-138 -47 0
-48 -139 0
-140 -49 0
-50 -141 0
-142 -51 0
-143 -52 0
-79 -131 0
-80 -132 0
-81 -133 0
-82 -134 0
-83 -135 0
-84 -136 0
-85 -137 0
-97 -84 0
-87 -139 0
-99 -86 0
-89 -141 0
-101 -88 0
-102 -89 0
-103 -90 0
-104 -91 0
-118 -53 0
-119 -54 0
-120 -55 0
-121 -56 0
-122 -57 0
-123 -58 0
-124 -59 0
-125 -60 0
-126 -61 0
-127 -62 0
-63 -128 0
-64 -129 0
-130 -65 0
-171 -158 0
-172 -159 0
-173 -160 0
-174 -161 0
-175 -162 0
-176 -163 0
-177 -164 0
-178 -165 0
-179 -166 0
-180 -167 0
